solution status: time limit reached
objective value:                                  212
C0029                                               1 	(obj:0)
C0034                                               1 	(obj:0)
C0041                                               1 	(obj:0)
C0043                                               1 	(obj:0)
C0048                                               1 	(obj:0)
C0055                                               1 	(obj:0)
C0057                                               1 	(obj:0)
C0063                                               1 	(obj:0)
C0067                                               1 	(obj:0)
C0074                                               1 	(obj:0)
C0081                                               1 	(obj:0)
C0082                                               1 	(obj:0)
C0090                                               1 	(obj:0)
C0095                                               1 	(obj:0)
C0101                                               1 	(obj:0)
C0105                                               1 	(obj:0)
C0109                                               1 	(obj:0)
C0112                                               1 	(obj:0)
C0121                                               1 	(obj:0)
C0123                                               1 	(obj:0)
C0129                                               1 	(obj:0)
C0135                                               1 	(obj:0)
C0138                                               1 	(obj:0)
C0146                                               1 	(obj:0)
C0151                                               1 	(obj:0)
C0152                                               1 	(obj:0)
C0001                                              10 	(obj:1)
C0002                                               9 	(obj:1)
C0003                                               7 	(obj:1)
C0004                                               7 	(obj:1)
C0005                                               7 	(obj:1)
C0006                                               9 	(obj:1)
C0007                                               9 	(obj:1)
C0008                                               8 	(obj:1)
C0009                                               4 	(obj:1)
C0010                                               8 	(obj:1)
C0011                                               7 	(obj:1)
C0012                                               7 	(obj:1)
C0013                                              10 	(obj:1)
C0014                                               7 	(obj:1)
C0015                                               8 	(obj:1)
C0016                                              11 	(obj:1)
C0017                                              10 	(obj:1)
C0018                                              10 	(obj:1)
C0019                                               9 	(obj:1)
C0020                                               8 	(obj:1)
C0021                                               9 	(obj:1)
C0022                                               9 	(obj:1)
C0023                                               8 	(obj:1)
C0024                                               5 	(obj:1)
C0025                                               6 	(obj:1)
C0026                                              10 	(obj:1)
